(set-logic QF_NRA)
; benchmark generated from python API
(set-info :status unknown)
(declare-fun v1y () Real)
(declare-fun oy () Real)
(declare-fun v1x () Real)
(declare-fun R2 () Real)
(declare-fun y1y () Real)
(declare-fun xy () Real)
(declare-fun y1x () Real)
(declare-fun xx () Real)
(declare-fun rho2 () Real)
(declare-fun y2y () Real)
(declare-fun y2x () Real)
(declare-fun a1y () Real)
(declare-fun a1x () Real)
(declare-fun b1y () Real)
(declare-fun b1x () Real)
(assert
 (let ((?x202 (* (- 1.0) v1x)))
 (let ((?x13 (* (- 1.0) R2)))
 (let ((?x136 (+ (+ (+ (+ (/ 1.0 4.0) (* oy oy)) (* v1x v1x)) (* v1y v1y)) ?x13)))
 (= (+ (+ ?x136 ?x202) (* (* (- 2.0) oy) v1y)) 0.0)))))
(assert
 (= (+ (+ (/ 1.0 4.0) (* oy oy)) (* (- 1.0) R2)) 0.0))
(assert
 (let ((?x51 (* (- 1.0) rho2)))
 (let ((?x147 (* y1y y1y)))
 (let ((?x303 (+ (+ (+ (+ (* xx xx) (* xy xy)) (* y1x y1x)) ?x147) ?x51)))
 (= (+ (+ ?x303 (* (* (- 2.0) xx) y1x)) (* (* (- 2.0) xy) y1y)) 0.0)))))
(assert
 (let ((?x51 (* (- 1.0) rho2)))
 (let ((?x237 (* y2y y2y)))
 (let ((?x61 (+ (+ (+ (+ (* xx xx) (* xy xy)) (* y2x y2x)) ?x237) ?x51)))
 (= (+ (+ ?x61 (* (* (- 2.0) xx) y2x)) (* (* (- 2.0) xy) y2y)) 0.0)))))
(assert
 (let ((?x51 (* (- 1.0) rho2)))
 (let ((?x295 (* xy xy)))
 (let ((?x32 (+ (+ (+ (+ (* a1x a1x) (* a1y a1y)) (* xx xx)) ?x295) ?x51)))
 (= (+ (+ ?x32 (* (* (- 2.0) a1x) xx)) (* (* (- 2.0) a1y) xy)) 0.0)))))
(assert
 (let ((?x51 (* (- 1.0) rho2)))
 (let ((?x295 (* xy xy)))
 (let ((?x280 (+ (+ (+ (+ (* b1x b1x) (* b1y b1y)) (* xx xx)) ?x295) ?x51)))
 (= (+ (+ ?x280 (* (* (- 2.0) b1x) xx)) (* (* (- 2.0) b1y) xy)) 0.0)))))
(assert
 (let ((?x251 (+ (+ (+ (+ (- (/ 1.0 4.0)) R2) xx) (* (- 1.0) (* oy oy))) (* (- 1.0) (* xx xx)))))
 (>= (+ (+ ?x251 (* (- 1.0) (* xy xy))) (* (* 2.0 oy) xy)) 0.0)))
(assert
 (let ((?x381 (+ (+ (+ (+ (- (/ 1.0 4.0)) R2) y1x) (* (- 1.0) (* oy oy))) (* (- 1.0) (* y1x y1x)))))
 (>= (+ (+ ?x381 (* (- 1.0) (* y1y y1y))) (* (* 2.0 oy) y1y)) 0.0)))
(assert
 (let ((?x245 (+ (+ (+ (+ (- (/ 1.0 4.0)) R2) y2x) (* (- 1.0) (* oy oy))) (* (- 1.0) (* y2x y2x)))))
 (>= (+ (+ ?x245 (* (- 1.0) (* y2y y2y))) (* (* 2.0 oy) y2y)) 0.0)))
(assert
 (let ((?x171 (* oy oy)))
 (let ((?x304 (* (- 1.0) ?x171)))
 (let ((?x86 (+ (+ (+ (+ (- (/ 1.0 4.0)) R2) a1x) (* (- 1.0) (* a1x a1x))) (* (- 1.0) (* a1y a1y)))))
 (>= (+ (+ ?x86 ?x304) (* (* 2.0 a1y) oy)) 0.0)))))
(assert
 (let ((?x171 (* oy oy)))
 (let ((?x304 (* (- 1.0) ?x171)))
 (let ((?x267 (+ (+ (+ (+ (- (/ 1.0 4.0)) R2) b1x) (* (- 1.0) (* b1x b1x))) (* (- 1.0) (* b1y b1y)))))
 (>= (+ (+ ?x267 ?x304) (* (* 2.0 b1y) oy)) 0.0)))))
(assert
 (>= (+ (+ (* v1x v1x) (* v1y v1y)) (* (- 1.0) v1x)) 0.0))
(assert
 (>= v1x 0.0))
(assert
 (>= (+ 1.0 (* (- 1.0) v1x)) 0.0))
(assert
 (> R2 0.0))
(assert
 (> rho2 0.0))
(assert
 (let ((?x246 (* (- 1.0) v1y)))
 (let ((?x85 (* ?x246 xy)))
 (> ?x85 0.0))))
(assert
 (let ((?x318 (+ (+ (* v1y v1y) (* (* (- 1.0) v1y) xy)) (* (* (- 1.0) xx) (* v1y v1y)))))
 (> (+ ?x318 (* (* v1x v1y) xy)) 0.0)))
(assert
 (> (+ (* xx (* v1y v1y)) (* (* (* (- 1.0) v1x) v1y) xy)) 0.0))
(assert
 (let ((?x246 (* (- 1.0) v1y)))
 (let ((?x142 (* ?x246 y1y)))
 (> ?x142 0.0))))
(assert
 (let ((?x44 (+ (+ (* v1y v1y) (* (* (- 1.0) v1y) y1y)) (* (* (- 1.0) y1x) (* v1y v1y)))))
 (> (+ ?x44 (* (* v1x v1y) y1y)) 0.0)))
(assert
 (> (+ (* y1x (* v1y v1y)) (* (* (* (- 1.0) v1x) v1y) y1y)) 0.0))
(assert
 (let ((?x246 (* (- 1.0) v1y)))
 (let ((?x107 (* ?x246 y2y)))
 (> ?x107 0.0))))
(assert
 (let ((?x371 (+ (+ (* v1y v1y) (* (* (- 1.0) v1y) y2y)) (* (* (- 1.0) y2x) (* v1y v1y)))))
 (> (+ ?x371 (* (* v1x v1y) y2y)) 0.0)))
(assert
 (> (+ (* y2x (* v1y v1y)) (* (* (* (- 1.0) v1x) v1y) y2y)) 0.0))
(assert
 (let ((?x93 (* a1y v1y)))
 (> ?x93 0.0)))
(assert
 (let ((?x346 (* (- 1.0) a1y)))
 (let ((?x122 (* ?x346 v1x)))
 (let ((?x47 (* ?x122 v1y)))
 (let ((?x93 (* a1y v1y)))
 (let ((?x352 (+ (+ (+ (* (- 1.0) (* v1y v1y)) (* a1x (* v1y v1y))) ?x93) ?x47)))
 (> ?x352 0.0)))))))
(assert
 (> (+ (* a1x (* v1y v1y)) (* (* (* (- 1.0) a1y) v1x) v1y)) 0.0))
(assert
 (> (* b1y v1y) 0.0))
(assert
 (let ((?x337 (* b1y v1x)))
 (let ((?x182 (* ?x337 v1y)))
 (let ((?x306 (+ (+ (* v1y v1y) (* (* (- 1.0) b1x) (* v1y v1y))) (* (* (- 1.0) b1y) v1y))))
 (> (+ ?x306 ?x182) 0.0)))))
(assert
 (> (+ (* (* (- 1.0) b1x) (* v1y v1y)) (* (* b1y v1x) v1y)) 0.0))
(assert
 (> (+ (* xy y1x) (* (* (- 1.0) xx) y1y)) 0.0))
(assert
 (> (+ (* y1x y2y) (* (* (- 1.0) y1y) y2x)) 0.0))
(assert
 (let ((?x113 (* (- 1.0) y1y)))
 (> ?x113 0.0)))
(assert
 (> (+ (* a1y y1x) (* (* (- 1.0) a1x) y1y)) 0.0))
(assert
 (> (+ (* v1y y1x) (* (* (- 1.0) v1x) y1y)) 0.0))
(assert
 (> (+ (* b1y y1x) (* (* (- 1.0) b1x) y1y)) 0.0))
(assert
 (> (+ (* xx y2y) (* (* (- 1.0) xy) y2x)) 0.0))
(assert
 (let ((?x131 (* (- 1.0) xy)))
 (> ?x131 0.0)))
(assert
 (> (+ (* a1y xx) (* (* (- 1.0) a1x) xy)) 0.0))
(assert
 (> (+ (* v1y xx) (* (* (- 1.0) v1x) xy)) 0.0))
(assert
 (> (+ (* b1y xx) (* (* (- 1.0) b1x) xy)) 0.0))
(assert
 (let ((?x124 (* (- 1.0) y2y)))
 (> ?x124 0.0)))
(assert
 (> (+ (* a1y y2x) (* (* (- 1.0) a1x) y2y)) 0.0))
(assert
 (> (+ (* v1y y2x) (* (* (- 1.0) v1x) y2y)) 0.0))
(assert
 (> (+ (* b1y y2x) (* (* (- 1.0) b1x) y2y)) 0.0))
(assert
 (> a1y 0.0))
(assert
 (> v1y 0.0))
(assert
 (> b1y 0.0))
(assert
 (> (+ (* a1x v1y) (* (* (- 1.0) a1y) v1x)) 0.0))
(assert
 (> (+ (* a1x b1y) (* (* (- 1.0) a1y) b1x)) 0.0))
(assert
 (> (+ (* b1y v1x) (* (* (- 1.0) b1x) v1y)) 0.0))
(assert
 (let ((?x131 (* (- 1.0) xy)))
 (let ((?x105 (* ?x131 y2x)))
 (let ((?x89 (* (- 1.0) xx)))
 (let ((?x223 (* ?x89 y1y)))
 (let ((?x160 (+ (+ (+ (+ (* xx y2y) (* xy y1x)) (* y1y y2x)) ?x223) ?x105)))
 (> (+ ?x160 (* (* (- 1.0) y1x) y2y)) 0.0)))))))
(assert
 (let ((?x89 (* (- 1.0) xx)))
 (let ((?x223 (* ?x89 y1y)))
 (> (+ (+ (+ y1y (* (- 1.0) xy)) (* xy y1x)) ?x223) 0.0))))
(assert
 (let ((?x89 (* (- 1.0) xx)))
 (let ((?x223 (* ?x89 y1y)))
 (let ((?x346 (* (- 1.0) a1y)))
 (let ((?x492 (* ?x346 y1x)))
 (let ((?x443 (* (- 1.0) a1x)))
 (let ((?x116 (* ?x443 xy)))
 (let ((?x179 (+ (+ (+ (+ (* a1x y1y) (* a1y xx)) (* xy y1x)) ?x116) ?x492)))
 (> (+ ?x179 ?x223) 0.0)))))))))
(assert
 (let ((?x89 (* (- 1.0) xx)))
 (let ((?x223 (* ?x89 y1y)))
 (let ((?x246 (* (- 1.0) v1y)))
 (let ((?x141 (* ?x246 y1x)))
 (let ((?x202 (* (- 1.0) v1x)))
 (let ((?x264 (* ?x202 xy)))
 (let ((?x483 (+ (+ (+ (+ (* v1x y1y) (* v1y xx)) (* xy y1x)) ?x264) ?x141)))
 (> (+ ?x483 ?x223) 0.0)))))))))
(assert
 (let ((?x89 (* (- 1.0) xx)))
 (let ((?x223 (* ?x89 y1y)))
 (let ((?x274 (* (- 1.0) b1y)))
 (let ((?x198 (* ?x274 y1x)))
 (let ((?x169 (* (- 1.0) b1x)))
 (let ((?x137 (* ?x169 xy)))
 (let ((?x320 (+ (+ (+ (+ (* b1x y1y) (* b1y xx)) (* xy y1x)) ?x137) ?x198)))
 (> (+ ?x320 ?x223) 0.0)))))))))
(assert
 (let ((?x113 (* (- 1.0) y1y)))
 (let ((?x100 (* ?x113 y2x)))
 (> (+ (+ (+ y1y (* (- 1.0) y2y)) (* y1x y2y)) ?x100) 0.0))))
(assert
 (let ((?x113 (* (- 1.0) y1y)))
 (let ((?x100 (* ?x113 y2x)))
 (let ((?x346 (* (- 1.0) a1y)))
 (let ((?x492 (* ?x346 y1x)))
 (let ((?x443 (* (- 1.0) a1x)))
 (let ((?x130 (* ?x443 y2y)))
 (let ((?x359 (+ (+ (+ (+ (* a1x y1y) (* a1y y2x)) (* y1x y2y)) ?x130) ?x492)))
 (> (+ ?x359 ?x100) 0.0)))))))))
(assert
 (let ((?x113 (* (- 1.0) y1y)))
 (let ((?x100 (* ?x113 y2x)))
 (let ((?x246 (* (- 1.0) v1y)))
 (let ((?x141 (* ?x246 y1x)))
 (let ((?x202 (* (- 1.0) v1x)))
 (let ((?x490 (* ?x202 y2y)))
 (let ((?x779 (+ (+ (+ (+ (* v1x y1y) (* v1y y2x)) (* y1x y2y)) ?x490) ?x141)))
 (> (+ ?x779 ?x100) 0.0)))))))))
(assert
 (let ((?x113 (* (- 1.0) y1y)))
 (let ((?x100 (* ?x113 y2x)))
 (let ((?x274 (* (- 1.0) b1y)))
 (let ((?x198 (* ?x274 y1x)))
 (let ((?x169 (* (- 1.0) b1x)))
 (let ((?x247 (* ?x169 y2y)))
 (let ((?x407 (+ (+ (+ (+ (* b1x y1y) (* b1y y2x)) (* y1x y2y)) ?x247) ?x198)))
 (> (+ ?x407 ?x100) 0.0)))))))))
(assert
 (let ((?x346 (* (- 1.0) a1y)))
 (let ((?x492 (* ?x346 y1x)))
 (> (+ (+ (+ a1y (* (- 1.0) y1y)) (* a1x y1y)) ?x492) 0.0))))
(assert
 (let ((?x246 (* (- 1.0) v1y)))
 (let ((?x141 (* ?x246 y1x)))
 (> (+ (+ (+ v1y (* (- 1.0) y1y)) (* v1x y1y)) ?x141) 0.0))))
(assert
 (let ((?x274 (* (- 1.0) b1y)))
 (let ((?x198 (* ?x274 y1x)))
 (> (+ (+ (+ b1y (* (- 1.0) y1y)) (* b1x y1y)) ?x198) 0.0))))
(assert
 (let ((?x246 (* (- 1.0) v1y)))
 (let ((?x141 (* ?x246 y1x)))
 (let ((?x346 (* (- 1.0) a1y)))
 (let ((?x122 (* ?x346 v1x)))
 (let ((?x443 (* (- 1.0) a1x)))
 (let ((?x33 (* ?x443 y1y)))
 (let ((?x434 (+ (+ (+ (+ (* a1x v1y) (* a1y y1x)) (* v1x y1y)) ?x33) ?x122)))
 (> (+ ?x434 ?x141) 0.0)))))))))
(assert
 (let ((?x274 (* (- 1.0) b1y)))
 (let ((?x198 (* ?x274 y1x)))
 (let ((?x346 (* (- 1.0) a1y)))
 (let ((?x133 (* ?x346 b1x)))
 (let ((?x443 (* (- 1.0) a1x)))
 (let ((?x33 (* ?x443 y1y)))
 (let ((?x119 (+ (+ (+ (+ (* a1x b1y) (* a1y y1x)) (* b1x y1y)) ?x33) ?x133)))
 (> (+ ?x119 ?x198) 0.0)))))))))
(assert
 (let ((?x202 (* (- 1.0) v1x)))
 (let ((?x361 (* ?x202 y1y)))
 (let ((?x274 (* (- 1.0) b1y)))
 (let ((?x198 (* ?x274 y1x)))
 (let ((?x169 (* (- 1.0) b1x)))
 (let ((?x316 (* ?x169 v1y)))
 (let ((?x285 (+ (+ (+ (+ (* b1x y1y) (* b1y v1x)) (* v1y y1x)) ?x316) ?x198)))
 (> (+ ?x285 ?x361) 0.0)))))))))
(assert
 (let ((?x131 (* (- 1.0) xy)))
 (let ((?x105 (* ?x131 y2x)))
 (> (+ (+ (+ xy (* (- 1.0) y2y)) (* xx y2y)) ?x105) 0.0))))
(assert
 (let ((?x131 (* (- 1.0) xy)))
 (let ((?x105 (* ?x131 y2x)))
 (let ((?x346 (* (- 1.0) a1y)))
 (let ((?x376 (* ?x346 xx)))
 (let ((?x443 (* (- 1.0) a1x)))
 (let ((?x130 (* ?x443 y2y)))
 (let ((?x482 (+ (+ (+ (+ (* a1x xy) (* a1y y2x)) (* xx y2y)) ?x130) ?x376)))
 (> (+ ?x482 ?x105) 0.0)))))))))
(assert
 (let ((?x131 (* (- 1.0) xy)))
 (let ((?x105 (* ?x131 y2x)))
 (let ((?x246 (* (- 1.0) v1y)))
 (let ((?x478 (* ?x246 xx)))
 (let ((?x202 (* (- 1.0) v1x)))
 (let ((?x490 (* ?x202 y2y)))
 (let ((?x441 (+ (+ (+ (+ (* v1x xy) (* v1y y2x)) (* xx y2y)) ?x490) ?x478)))
 (> (+ ?x441 ?x105) 0.0)))))))))
(assert
 (let ((?x131 (* (- 1.0) xy)))
 (let ((?x105 (* ?x131 y2x)))
 (let ((?x274 (* (- 1.0) b1y)))
 (let ((?x158 (* ?x274 xx)))
 (let ((?x169 (* (- 1.0) b1x)))
 (let ((?x247 (* ?x169 y2y)))
 (let ((?x151 (+ (+ (+ (+ (* b1x xy) (* b1y y2x)) (* xx y2y)) ?x247) ?x158)))
 (> (+ ?x151 ?x105) 0.0)))))))))
(assert
 (let ((?x346 (* (- 1.0) a1y)))
 (let ((?x376 (* ?x346 xx)))
 (> (+ (+ (+ a1y (* (- 1.0) xy)) (* a1x xy)) ?x376) 0.0))))
(assert
 (let ((?x246 (* (- 1.0) v1y)))
 (let ((?x478 (* ?x246 xx)))
 (> (+ (+ (+ v1y (* (- 1.0) xy)) (* v1x xy)) ?x478) 0.0))))
(assert
 (let ((?x274 (* (- 1.0) b1y)))
 (let ((?x158 (* ?x274 xx)))
 (> (+ (+ (+ b1y (* (- 1.0) xy)) (* b1x xy)) ?x158) 0.0))))
(assert
 (let ((?x246 (* (- 1.0) v1y)))
 (let ((?x478 (* ?x246 xx)))
 (let ((?x346 (* (- 1.0) a1y)))
 (let ((?x122 (* ?x346 v1x)))
 (let ((?x443 (* (- 1.0) a1x)))
 (let ((?x116 (* ?x443 xy)))
 (let ((?x485 (+ (+ (+ (+ (* a1x v1y) (* a1y xx)) (* v1x xy)) ?x116) ?x122)))
 (> (+ ?x485 ?x478) 0.0)))))))))
(assert
 (let ((?x274 (* (- 1.0) b1y)))
 (let ((?x158 (* ?x274 xx)))
 (let ((?x346 (* (- 1.0) a1y)))
 (let ((?x133 (* ?x346 b1x)))
 (let ((?x443 (* (- 1.0) a1x)))
 (let ((?x116 (* ?x443 xy)))
 (let ((?x388 (+ (+ (+ (+ (* a1x b1y) (* a1y xx)) (* b1x xy)) ?x116) ?x133)))
 (> (+ ?x388 ?x158) 0.0)))))))))
(assert
 (let ((?x202 (* (- 1.0) v1x)))
 (let ((?x264 (* ?x202 xy)))
 (let ((?x274 (* (- 1.0) b1y)))
 (let ((?x158 (* ?x274 xx)))
 (let ((?x169 (* (- 1.0) b1x)))
 (let ((?x316 (* ?x169 v1y)))
 (let ((?x70 (+ (+ (+ (+ (* b1x xy) (* b1y v1x)) (* v1y xx)) ?x316) ?x158)))
 (> (+ ?x70 ?x264) 0.0)))))))))
(assert
 (let ((?x178 (+ (+ (+ a1y (* (- 1.0) y2y)) (* a1x y2y)) (* (* (- 1.0) a1y) y2x))))
 (> ?x178 0.0)))
(assert
 (let ((?x246 (* (- 1.0) v1y)))
 (let ((?x470 (* ?x246 y2x)))
 (> (+ (+ (+ v1y (* (- 1.0) y2y)) (* v1x y2y)) ?x470) 0.0))))
(assert
 (let ((?x274 (* (- 1.0) b1y)))
 (let ((?x467 (* ?x274 y2x)))
 (> (+ (+ (+ b1y (* (- 1.0) y2y)) (* b1x y2y)) ?x467) 0.0))))
(assert
 (let ((?x246 (* (- 1.0) v1y)))
 (let ((?x470 (* ?x246 y2x)))
 (let ((?x346 (* (- 1.0) a1y)))
 (let ((?x122 (* ?x346 v1x)))
 (let ((?x443 (* (- 1.0) a1x)))
 (let ((?x130 (* ?x443 y2y)))
 (let ((?x324 (+ (+ (+ (+ (* a1x v1y) (* a1y y2x)) (* v1x y2y)) ?x130) ?x122)))
 (> (+ ?x324 ?x470) 0.0)))))))))
(assert
 (let ((?x274 (* (- 1.0) b1y)))
 (let ((?x467 (* ?x274 y2x)))
 (let ((?x346 (* (- 1.0) a1y)))
 (let ((?x133 (* ?x346 b1x)))
 (let ((?x443 (* (- 1.0) a1x)))
 (let ((?x130 (* ?x443 y2y)))
 (let ((?x471 (+ (+ (+ (+ (* a1x b1y) (* a1y y2x)) (* b1x y2y)) ?x130) ?x133)))
 (> (+ ?x471 ?x467) 0.0)))))))))
(assert
 (let ((?x202 (* (- 1.0) v1x)))
 (let ((?x490 (* ?x202 y2y)))
 (let ((?x274 (* (- 1.0) b1y)))
 (let ((?x467 (* ?x274 y2x)))
 (let ((?x169 (* (- 1.0) b1x)))
 (let ((?x316 (* ?x169 v1y)))
 (let ((?x228 (+ (+ (+ (+ (* b1x y2y) (* b1y v1x)) (* v1y y2x)) ?x316) ?x467)))
 (> (+ ?x228 ?x490) 0.0)))))))))
(assert
 (let ((?x346 (* (- 1.0) a1y)))
 (let ((?x122 (* ?x346 v1x)))
 (> (+ (+ (+ a1y (* (- 1.0) v1y)) (* a1x v1y)) ?x122) 0.0))))
(assert
 (let ((?x346 (* (- 1.0) a1y)))
 (let ((?x133 (* ?x346 b1x)))
 (> (+ (+ (+ a1y (* (- 1.0) b1y)) (* a1x b1y)) ?x133) 0.0))))
(assert
 (let ((?x169 (* (- 1.0) b1x)))
 (let ((?x316 (* ?x169 v1y)))
 (> (+ (+ (+ v1y (* (- 1.0) b1y)) (* b1y v1x)) ?x316) 0.0))))
(assert
 (let ((?x169 (* (- 1.0) b1x)))
(let ((?x316 (* ?x169 v1y)))
(let ((?x346 (* (- 1.0) a1y)))
(let ((?x122 (* ?x346 v1x)))
(let ((?x97 (+ (+ (+ (* a1x v1y) (* a1y b1x)) (* b1y v1x)) (* (* (- 1.0) a1x) b1y))))
(> (+ (+ ?x97 ?x122) ?x316) 0.0)))))))
(check-sat)
